19 17

8 8 4 11 11 12 1 11
6 6 9 7 4 15 15 7 2 14
14 7 11 13 5 6 1 13
17 15 4 5 7 3 3 8 13 11
5 9 3 7 12 15 8 5 9 15 7 15
8 14 15 6 10 6 11 13
6 6 8 12 16 7 12 10
11 14 1 10 5 4 17 7 4 13
15 8 12 4 8 3 9 12 10 8 17 14
4 10 1 6 14 14 17 5 5 8
14 12 11 14 8 12 15 4
9 12 10 5 6 5 4 8 13 7 17 11
2 13 3 3 13 13 15 8
5 6 10 10 11 11 14 5
17 5 15 9 8 13 6 15 1 10
6 15 10 2 9 11 16 2 3 9 15 7
13 7 5 6 9 6 2 4 16 7
12 10 10 8 17 15 16 3 9 15
6 7 15 3 10 11 12 7 2 11 11 11
